outputs/case_287.model.txt
business_operated_according_to_articles = True
business_operated_according_to_internal_control = False
business_operated_according_to_law = False
internal_control_change_notice_received = False
internal_control_established_by_exchange_and_related_institutions = True
internal_control_established_by_financial_supervisor = True
internal_control_updated_within_deadline = False
violation_of_law_or_orders = False
penalty_other_measures = False
penalty_suspension = False
business_operated_according_to_law_and_internal_control = False
penalty = False
penalty_warning = False
internal_control_established = True
violation_of_securities_law = False
penalty_revoke_license = False
internal_control_updated_after_change_notice = True
penalty_dismiss_officer = False
violation_of_orders_issued_under_law = False